language ESSENCE' 1.0
$ minion Nodes: 1
$ minion TotalTime: 0.000398
$ Savile Row TotalTime: 0.135
letting pain_tuple3_tuple1_tuple2 be [11]
letting pain_tuple1 be [2]
letting pain_tuple3_tuple1_tuple1 be [10]
letting pain_tuple3_tuple2 be [12]
letting pain_tuple2_tuple1 be [5]
letting pain_tuple2_tuple2 be [6]
